(set-logic QF_LRA)
(declare-fun T1 () Real )
(declare-fun T2 () Real )
(declare-fun T3 () Real )
(declare-fun T4 () Real )
(declare-fun T5 () Real )
(declare-fun T6 () Real )
(declare-fun Z () Real )
(declare-fun k () Real )
(assert (let
(( $goal (>= Z k) ))
(let
((
$phi ( and 
(or ( <= ( + T1 10 ) T2 ) ( <= ( + T2 80 ) T1 ) )
(or ( <= ( + T1 61 )  ( + T2 80 ) ) ( <= ( + T2 175 )( + T1 10 ) ) )
(or ( <= ( + T1 118 )  ( + T2 175 ) ) ( <= ( + T2 179 )( + T1 61 ) ) )
(or ( <= ( + T1 128 )  ( + T2 179 ) ) ( <= ( + T2 237 )( + T1 118 ) ) )
(or ( <= ( + T1 188 )  ( + T2 237 ) ) ( <= ( + T2 317 )( + T1 128 ) ) )
(or ( <= ( + T1 245 )  ( + T2 317 ) ) ( <= ( + T2 326 )( + T1 188 ) ) )
(or ( <= ( + T1 308 )  ( + T2 326 ) ) ( <= ( + T2 327 )( + T1 245 ) ) )
(or ( <= ( + T1 378 )  ( + T2 327 ) ) ( <= ( + T2 359 )( + T1 308 ) ) )
(or ( <= ( + T1 10 ) T3 ) ( <= ( + T3 66 ) T1 ) )
(or ( <= ( + T1 61 )  ( + T3 66 ) ) ( <= ( + T3 153 )( + T1 10 ) ) )
(or ( <= ( + T1 118 )  ( + T3 153 ) ) ( <= ( + T3 204 )( + T1 61 ) ) )
(or ( <= ( + T1 128 )  ( + T3 204 ) ) ( <= ( + T3 266 )( + T1 118 ) ) )
(or ( <= ( + T1 188 )  ( + T3 266 ) ) ( <= ( + T3 319 )( + T1 128 ) ) )
(or ( <= ( + T1 245 )  ( + T3 319 ) ) ( <= ( + T3 399 )( + T1 188 ) ) )
(or ( <= ( + T1 308 )  ( + T3 399 ) ) ( <= ( + T3 439 )( + T1 245 ) ) )
(or ( <= ( + T1 378 )  ( + T3 439 ) ) ( <= ( + T3 448 )( + T1 308 ) ) )
(or ( <= ( + T1 10 ) T4 ) ( <= ( + T4 1 ) T1 ) )
(or ( <= ( + T1 61 )  ( + T4 1 ) ) ( <= ( + T4 41 )( + T1 10 ) ) )
(or ( <= ( + T1 118 )  ( + T4 41 ) ) ( <= ( + T4 91 )( + T1 61 ) ) )
(or ( <= ( + T1 128 )  ( + T4 91 ) ) ( <= ( + T4 172 )( + T1 118 ) ) )
(or ( <= ( + T1 188 )  ( + T4 172 ) ) ( <= ( + T4 227 )( + T1 128 ) ) )
(or ( <= ( + T1 245 )  ( + T4 227 ) ) ( <= ( + T4 303 )( + T1 188 ) ) )
(or ( <= ( + T1 308 )  ( + T4 303 ) ) ( <= ( + T4 377 )( + T1 245 ) ) )
(or ( <= ( + T1 378 )  ( + T4 377 ) ) ( <= ( + T4 394 )( + T1 308 ) ) )
(or ( <= ( + T1 10 ) T5 ) ( <= ( + T5 78 ) T1 ) )
(or ( <= ( + T1 61 )  ( + T5 78 ) ) ( <= ( + T5 109 )( + T1 10 ) ) )
(or ( <= ( + T1 118 )  ( + T5 109 ) ) ( <= ( + T5 135 )( + T1 61 ) ) )
(or ( <= ( + T1 128 )  ( + T5 135 ) ) ( <= ( + T5 224 )( + T1 118 ) ) )
(or ( <= ( + T1 188 )  ( + T5 224 ) ) ( <= ( + T5 311 )( + T1 128 ) ) )
(or ( <= ( + T1 245 )  ( + T5 311 ) ) ( <= ( + T5 351 )( + T1 188 ) ) )
(or ( <= ( + T1 308 )  ( + T5 351 ) ) ( <= ( + T5 409 )( + T1 245 ) ) )
(or ( <= ( + T1 378 )  ( + T5 409 ) ) ( <= ( + T5 427 )( + T1 308 ) ) )
(or ( <= ( + T1 10 ) T6 ) ( <= ( + T6 34 ) T1 ) )
(or ( <= ( + T1 61 )  ( + T6 34 ) ) ( <= ( + T6 96 )( + T1 10 ) ) )
(or ( <= ( + T1 118 )  ( + T6 96 ) ) ( <= ( + T6 171 )( + T1 61 ) ) )
(or ( <= ( + T1 128 )  ( + T6 171 ) ) ( <= ( + T6 237 )( + T1 118 ) ) )
(or ( <= ( + T1 188 )  ( + T6 237 ) ) ( <= ( + T6 259 )( + T1 128 ) ) )
(or ( <= ( + T1 245 )  ( + T6 259 ) ) ( <= ( + T6 286 )( + T1 188 ) ) )
(or ( <= ( + T1 308 )  ( + T6 286 ) ) ( <= ( + T6 335 )( + T1 245 ) ) )
(or ( <= ( + T1 378 )  ( + T6 335 ) ) ( <= ( + T6 375 )( + T1 308 ) ) )
(or ( <= ( + T2 80 ) T3 ) ( <= ( + T3 66 ) T2 ) )
(or ( <= ( + T2 175 )  ( + T3 66 ) ) ( <= ( + T3 153 )( + T2 80 ) ) )
(or ( <= ( + T2 179 )  ( + T3 153 ) ) ( <= ( + T3 204 )( + T2 175 ) ) )
(or ( <= ( + T2 237 )  ( + T3 204 ) ) ( <= ( + T3 266 )( + T2 179 ) ) )
(or ( <= ( + T2 317 )  ( + T3 266 ) ) ( <= ( + T3 319 )( + T2 237 ) ) )
(or ( <= ( + T2 326 )  ( + T3 319 ) ) ( <= ( + T3 399 )( + T2 317 ) ) )
(or ( <= ( + T2 327 )  ( + T3 399 ) ) ( <= ( + T3 439 )( + T2 326 ) ) )
(or ( <= ( + T2 359 )  ( + T3 439 ) ) ( <= ( + T3 448 )( + T2 327 ) ) )
(or ( <= ( + T2 80 ) T4 ) ( <= ( + T4 1 ) T2 ) )
(or ( <= ( + T2 175 )  ( + T4 1 ) ) ( <= ( + T4 41 )( + T2 80 ) ) )
(or ( <= ( + T2 179 )  ( + T4 41 ) ) ( <= ( + T4 91 )( + T2 175 ) ) )
(or ( <= ( + T2 237 )  ( + T4 91 ) ) ( <= ( + T4 172 )( + T2 179 ) ) )
(or ( <= ( + T2 317 )  ( + T4 172 ) ) ( <= ( + T4 227 )( + T2 237 ) ) )
(or ( <= ( + T2 326 )  ( + T4 227 ) ) ( <= ( + T4 303 )( + T2 317 ) ) )
(or ( <= ( + T2 327 )  ( + T4 303 ) ) ( <= ( + T4 377 )( + T2 326 ) ) )
(or ( <= ( + T2 359 )  ( + T4 377 ) ) ( <= ( + T4 394 )( + T2 327 ) ) )
(or ( <= ( + T2 80 ) T5 ) ( <= ( + T5 78 ) T2 ) )
(or ( <= ( + T2 175 )  ( + T5 78 ) ) ( <= ( + T5 109 )( + T2 80 ) ) )
(or ( <= ( + T2 179 )  ( + T5 109 ) ) ( <= ( + T5 135 )( + T2 175 ) ) )
(or ( <= ( + T2 237 )  ( + T5 135 ) ) ( <= ( + T5 224 )( + T2 179 ) ) )
(or ( <= ( + T2 317 )  ( + T5 224 ) ) ( <= ( + T5 311 )( + T2 237 ) ) )
(or ( <= ( + T2 326 )  ( + T5 311 ) ) ( <= ( + T5 351 )( + T2 317 ) ) )
(or ( <= ( + T2 327 )  ( + T5 351 ) ) ( <= ( + T5 409 )( + T2 326 ) ) )
(or ( <= ( + T2 359 )  ( + T5 409 ) ) ( <= ( + T5 427 )( + T2 327 ) ) )
(or ( <= ( + T2 80 ) T6 ) ( <= ( + T6 34 ) T2 ) )
(or ( <= ( + T2 175 )  ( + T6 34 ) ) ( <= ( + T6 96 )( + T2 80 ) ) )
(or ( <= ( + T2 179 )  ( + T6 96 ) ) ( <= ( + T6 171 )( + T2 175 ) ) )
(or ( <= ( + T2 237 )  ( + T6 171 ) ) ( <= ( + T6 237 )( + T2 179 ) ) )
(or ( <= ( + T2 317 )  ( + T6 237 ) ) ( <= ( + T6 259 )( + T2 237 ) ) )
(or ( <= ( + T2 326 )  ( + T6 259 ) ) ( <= ( + T6 286 )( + T2 317 ) ) )
(or ( <= ( + T2 327 )  ( + T6 286 ) ) ( <= ( + T6 335 )( + T2 326 ) ) )
(or ( <= ( + T2 359 )  ( + T6 335 ) ) ( <= ( + T6 375 )( + T2 327 ) ) )
(or ( <= ( + T3 66 ) T4 ) ( <= ( + T4 1 ) T3 ) )
(or ( <= ( + T3 153 )  ( + T4 1 ) ) ( <= ( + T4 41 )( + T3 66 ) ) )
(or ( <= ( + T3 204 )  ( + T4 41 ) ) ( <= ( + T4 91 )( + T3 153 ) ) )
(or ( <= ( + T3 266 )  ( + T4 91 ) ) ( <= ( + T4 172 )( + T3 204 ) ) )
(or ( <= ( + T3 319 )  ( + T4 172 ) ) ( <= ( + T4 227 )( + T3 266 ) ) )
(or ( <= ( + T3 399 )  ( + T4 227 ) ) ( <= ( + T4 303 )( + T3 319 ) ) )
(or ( <= ( + T3 439 )  ( + T4 303 ) ) ( <= ( + T4 377 )( + T3 399 ) ) )
(or ( <= ( + T3 448 )  ( + T4 377 ) ) ( <= ( + T4 394 )( + T3 439 ) ) )
(or ( <= ( + T3 66 ) T5 ) ( <= ( + T5 78 ) T3 ) )
(or ( <= ( + T3 153 )  ( + T5 78 ) ) ( <= ( + T5 109 )( + T3 66 ) ) )
(or ( <= ( + T3 204 )  ( + T5 109 ) ) ( <= ( + T5 135 )( + T3 153 ) ) )
(or ( <= ( + T3 266 )  ( + T5 135 ) ) ( <= ( + T5 224 )( + T3 204 ) ) )
(or ( <= ( + T3 319 )  ( + T5 224 ) ) ( <= ( + T5 311 )( + T3 266 ) ) )
(or ( <= ( + T3 399 )  ( + T5 311 ) ) ( <= ( + T5 351 )( + T3 319 ) ) )
(or ( <= ( + T3 439 )  ( + T5 351 ) ) ( <= ( + T5 409 )( + T3 399 ) ) )
(or ( <= ( + T3 448 )  ( + T5 409 ) ) ( <= ( + T5 427 )( + T3 439 ) ) )
(or ( <= ( + T3 66 ) T6 ) ( <= ( + T6 34 ) T3 ) )
(or ( <= ( + T3 153 )  ( + T6 34 ) ) ( <= ( + T6 96 )( + T3 66 ) ) )
(or ( <= ( + T3 204 )  ( + T6 96 ) ) ( <= ( + T6 171 )( + T3 153 ) ) )
(or ( <= ( + T3 266 )  ( + T6 171 ) ) ( <= ( + T6 237 )( + T3 204 ) ) )
(or ( <= ( + T3 319 )  ( + T6 237 ) ) ( <= ( + T6 259 )( + T3 266 ) ) )
(or ( <= ( + T3 399 )  ( + T6 259 ) ) ( <= ( + T6 286 )( + T3 319 ) ) )
(or ( <= ( + T3 439 )  ( + T6 286 ) ) ( <= ( + T6 335 )( + T3 399 ) ) )
(or ( <= ( + T3 448 )  ( + T6 335 ) ) ( <= ( + T6 375 )( + T3 439 ) ) )
(or ( <= ( + T4 1 ) T5 ) ( <= ( + T5 78 ) T4 ) )
(or ( <= ( + T4 41 )  ( + T5 78 ) ) ( <= ( + T5 109 )( + T4 1 ) ) )
(or ( <= ( + T4 91 )  ( + T5 109 ) ) ( <= ( + T5 135 )( + T4 41 ) ) )
(or ( <= ( + T4 172 )  ( + T5 135 ) ) ( <= ( + T5 224 )( + T4 91 ) ) )
(or ( <= ( + T4 227 )  ( + T5 224 ) ) ( <= ( + T5 311 )( + T4 172 ) ) )
(or ( <= ( + T4 303 )  ( + T5 311 ) ) ( <= ( + T5 351 )( + T4 227 ) ) )
(or ( <= ( + T4 377 )  ( + T5 351 ) ) ( <= ( + T5 409 )( + T4 303 ) ) )
(or ( <= ( + T4 394 )  ( + T5 409 ) ) ( <= ( + T5 427 )( + T4 377 ) ) )
(or ( <= ( + T4 1 ) T6 ) ( <= ( + T6 34 ) T4 ) )
(or ( <= ( + T4 41 )  ( + T6 34 ) ) ( <= ( + T6 96 )( + T4 1 ) ) )
(or ( <= ( + T4 91 )  ( + T6 96 ) ) ( <= ( + T6 171 )( + T4 41 ) ) )
(or ( <= ( + T4 172 )  ( + T6 171 ) ) ( <= ( + T6 237 )( + T4 91 ) ) )
(or ( <= ( + T4 227 )  ( + T6 237 ) ) ( <= ( + T6 259 )( + T4 172 ) ) )
(or ( <= ( + T4 303 )  ( + T6 259 ) ) ( <= ( + T6 286 )( + T4 227 ) ) )
(or ( <= ( + T4 377 )  ( + T6 286 ) ) ( <= ( + T6 335 )( + T4 303 ) ) )
(or ( <= ( + T4 394 )  ( + T6 335 ) ) ( <= ( + T6 375 )( + T4 377 ) ) )
(or ( <= ( + T5 78 ) T6 ) ( <= ( + T6 34 ) T5 ) )
(or ( <= ( + T5 109 )  ( + T6 34 ) ) ( <= ( + T6 96 )( + T5 78 ) ) )
(or ( <= ( + T5 135 )  ( + T6 96 ) ) ( <= ( + T6 171 )( + T5 109 ) ) )
(or ( <= ( + T5 224 )  ( + T6 171 ) ) ( <= ( + T6 237 )( + T5 135 ) ) )
(or ( <= ( + T5 311 )  ( + T6 237 ) ) ( <= ( + T6 259 )( + T5 224 ) ) )
(or ( <= ( + T5 351 )  ( + T6 259 ) ) ( <= ( + T6 286 )( + T5 311 ) ) )
(or ( <= ( + T5 409 )  ( + T6 286 ) ) ( <= ( + T6 335 )( + T5 351 ) ) )
(or ( <= ( + T5 427 )  ( + T6 335 ) ) ( <= ( + T6 375 )( + T5 409 ) ) )
( <= ( + T1 378 ) Z)
( <= ( + T2 359 ) Z)
( <= ( + T3 448 ) Z)
( <= ( + T4 394 ) Z)
( <= ( + T5 427 ) Z)
( <= ( + T6 375 ) Z)
( >= T1 0 )
( >= T2 0 )
( >= T3 0 )
( >= T4 0 )
( >= T5 0 )
( >= T6 0 )
) )
)(=> $phi $goal))))